code/flow_abz8.sol
 x(1,1,0,10,19) 1
 x(1,10,19,3,52) 1
 x(1,3,52,14,84) 1
 x(1,14,115,11,133) 1
 x(1,11,278,9,317) 1
 x(1,9,333,7,367) 1
 x(1,7,370,5,395) 1
 x(1,5,402,12,438) 1
 x(1,12,438,13,478) 1
 x(1,13,478,2,511) 1
 x(1,2,511,15,542) 1
 x(1,15,613,4,643) 1
 x(1,4,643,6,677) 1
 x(1,6,677,8,703) 1
 x(1,8,703,f,716) 1
 x(2,10,0,11,11) 1
 x(2,11,47,15,69) 1
 x(2,15,73,6,92) 1
 x(2,6,92,5,104) 1
 x(2,5,104,7,129) 1
 x(2,7,129,1,167) 1
 x(2,1,167,8,196) 1
 x(2,8,289,14,328) 1
 x(2,14,328,12,347) 1
 x(2,12,347,2,369) 1
 x(2,2,369,4,392) 1
 x(2,4,604,3,624) 1
 x(2,3,626,13,666) 1
 x(2,13,666,9,685) 1
 x(2,9,690,f,716) 1
 x(3,4,0,9,25) 1
 x(3,9,109,12,126) 1
 x(3,12,126,14,150) 1
 x(3,14,150,11,190) 1
 x(3,11,190,15,222) 1
 x(3,15,222,6,238) 1
 x(3,6,238,10,277) 1
 x(3,10,376,1,395) 1
 x(3,1,403,2,427) 1
 x(3,2,427,5,466) 1
 x(3,5,478,3,495) 1
 x(3,3,498,8,533) 1
 x(3,8,562,7,600) 1
 x(3,7,665,13,685) 1
 x(3,13,685,f,716) 1
 x(4,4,58,3,94) 1
 x(4,15,36,4,58) 1
 x(4,3,136,13,170) 1
 x(4,13,170,5,187) 1
 x(4,5,213,14,243) 1
 x(4,14,274,2,286) 1
 x(4,2,286,7,299) 1
 x(4,7,345,10,370) 1
 x(4,10,395,8,407) 1
 x(4,8,407,11,425) 1
 x(4,11,437,1,468) 1
 x(4,1,468,6,507) 1
 x(4,6,507,9,547) 1
 x(4,9,636,12,662) 1
 x(4,12,667,f,704) 1
 x(5,13,0,15,32) 1
 x(5,15,58,2,73) 1
 x(5,2,105,8,140) 1
 x(5,8,165,9,178) 1
 x(5,9,231,12,263) 1
 x(5,12,263,7,286) 1
 x(5,7,296,5,318) 1
 x(5,5,330,1,351) 1
 x(5,1,365,3,403) 1
 x(5,3,460,4,498) 1
 x(5,4,498,11,538) 1
 x(5,11,564,6,595) 1
 x(5,6,595,14,606) 1
 x(5,14,619,10,656) 1
 x(5,10,661,f,677) 1
 x(6,11,0,13,23) 1
 x(6,13,61,9,99) 1
 x(6,9,126,15,137) 1
 x(6,15,139,10,166) 1
 x(6,10,166,7,177) 1
 x(6,7,177,6,202) 1
 x(6,6,224,5,238) 1
 x(6,5,243,3,255) 1
 x(6,3,263,12,290) 1
 x(6,12,296,8,322) 1
 x(6,8,328,4,357) 1
 x(6,4,376,14,404) 1
 x(6,14,427,1,448) 1
 x(6,1,448,2,468) 1
 x(6,2,481,f,511) 1
 x(7,7,0,9,39) 1
 x(7,9,137,1,175) 1
 x(7,1,196,13,211) 1
 x(7,13,228,11,255) 1
 x(7,11,256,10,278) 1
 x(7,10,278,3,305) 1
 x(7,3,305,5,337) 1
 x(7,5,438,4,478) 1
 x(7,4,479,14,491) 1
 x(7,14,491,15,511) 1
 x(7,15,527,12,548) 1
 x(7,12,548,6,570) 1
 x(7,6,576,8,593) 1
 x(7,8,600,2,638) 1
 x(7,2,689,f,716) 1
 x(8,12,48,14,59) 1
 x(8,14,88,11,112) 1
 x(8,11,112,9,150) 1
 x(8,9,200,10,215) 1
 x(8,10,259,15,278) 1
 x(8,15,296,6,309) 1
 x(8,6,309,1,339) 1
 x(8,1,339,3,365) 1
 x(8,3,366,7,395) 1
 x(8,7,412,13,445) 1
 x(8,13,445,2,466) 1
 x(8,2,466,4,481) 1
 x(8,4,583,5,604) 1
 x(8,5,604,8,632) 1
 x(8,8,670,f,703) 1
 x(9,7,40,6,57) 1
 x(9,9,20,7,40) 1
 x(9,6,57,4,83) 1
 x(9,4,130,10,164) 1
 x(9,10,177,1,200) 1
 x(9,1,211,3,227) 1
 x(9,3,237,5,255) 1
 x(9,5,255,13,290) 1
 x(9,13,368,11,392) 1
 x(9,11,392,12,408) 1
 x(9,12,483,8,509) 1
 x(9,8,509,15,521) 1
 x(9,15,548,14,561) 1
 x(9,14,575,2,602) 1
 x(9,2,670,f,689) 1
 x(10,2,0,8,18) 1
 x(10,8,18,15,55) 1
 x(10,15,92,10,119) 1
 x(10,10,200,6,240) 1
 x(10,6,340,7,380) 1
 x(10,7,395,9,412) 1
 x(10,9,414,4,436) 1
 x(10,4,436,11,453) 1
 x(10,11,478,1,508) 1
 x(10,1,514,5,552) 1
 x(10,5,552,13,573) 1
 x(10,13,573,12,605) 1
 x(10,12,608,14,632) 1
 x(10,14,656,3,680) 1
 x(10,3,686,f,716) 1
 x(11,1,30,14,52) 1
 x(11,12,11,1,30) 1
 x(11,14,52,7,88) 1
 x(11,7,89,6,107) 1
 x(11,6,131,4,153) 1
 x(11,4,164,15,181) 1
 x(11,15,187,11,222) 1
 x(11,11,222,8,256) 1
 x(11,8,266,9,289) 1
 x(11,9,297,3,316) 1
 x(11,3,337,2,366) 1
 x(11,2,403,13,425) 1
 x(11,13,605,5,622) 1
 x(11,5,644,10,677) 1
 x(11,10,677,f,716) 1
 x(12,4,94,13,116) 1
 x(12,7,57,4,89) 1
 x(12,13,146,6,170) 1
 x(12,6,187,5,200) 1
 x(12,5,200,2,213) 1
 x(12,2,216,1,227) 1
 x(12,1,227,14,238) 1
 x(12,14,238,9,263) 1
 x(12,9,263,3,276) 1
 x(12,3,290,11,305) 1
 x(12,11,317,12,350) 1
 x(12,12,369,15,386) 1
 x(12,15,412,10,428) 1
 x(12,10,483,8,521) 1
 x(12,8,521,f,545) 1
 x(13,14,36,2,52) 1
 x(13,15,20,14,36) 1
 x(13,2,52,9,89) 1
 x(13,9,175,3,200) 1
 x(13,3,200,4,226) 1
 x(13,4,226,10,237) 1
 x(13,10,312,5,346) 1
 x(13,5,351,1,365) 1
 x(13,1,428,7,448) 1
 x(13,7,499,13,535) 1
 x(13,13,535,6,547) 1
 x(13,6,547,11,576) 1
 x(13,11,613,8,638) 1
 x(13,8,638,12,670) 1
 x(13,12,704,f,716) 1
 x(14,9,0,11,20) 1
 x(14,11,23,12,47) 1
 x(14,12,62,10,89) 1
 x(14,10,89,6,127) 1
 x(14,6,153,13,187) 1
 x(14,13,187,8,226) 1
 x(14,8,233,5,266) 1
 x(14,5,365,3,402) 1
 x(14,3,429,14,460) 1
 x(14,14,460,15,475) 1
 x(14,15,493,4,527) 1
 x(14,4,545,7,578) 1
 x(14,7,578,2,604) 1
 x(14,2,604,1,640) 1
 x(14,1,702,f,716) 1
 x(15,1,109,10,126) 1
 x(15,9,78,1,109) 1
 x(15,10,127,2,140) 1
 x(15,2,140,11,161) 1
 x(15,11,161,8,178) 1
 x(15,8,178,14,197) 1
 x(15,14,223,4,237) 1
 x(15,4,237,6,277) 1
 x(15,6,277,12,309) 1
 x(15,12,322,3,347) 1
 x(15,3,395,15,429) 1
 x(15,15,470,7,493) 1
 x(15,7,535,13,548) 1
 x(15,13,626,5,666) 1
 x(15,5,690,f,716) 1
 x(16,9,40,13,78) 1
 x(16,13,99,4,116) 1
 x(16,4,116,14,130) 1
 x(16,14,133,5,150) 1
 x(16,5,155,2,167) 1
 x(16,2,167,7,202) 1
 x(16,7,202,1,237) 1
 x(16,1,304,11,323) 1
 x(16,11,356,8,392) 1
 x(16,8,425,10,444) 1
 x(16,10,454,3,483) 1
 x(16,3,562,6,593) 1
 x(16,6,606,12,632) 1
 x(16,12,632,15,667) 1
 x(16,15,679,f,716) 1
 x(17,4,25,1,41) 1
 x(17,15,0,4,20) 1
 x(17,1,52,11,85) 1
 x(17,11,85,6,99) 1
 x(17,6,104,8,131) 1
 x(17,8,134,9,165) 1
 x(17,9,215,7,231) 1
 x(17,7,237,13,268) 1
 x(17,13,268,10,296) 1
 x(17,10,417,5,454) 1
 x(17,5,495,3,532) 1
 x(17,3,533,12,562) 1
 x(17,12,570,2,608) 1
 x(17,2,640,14,670) 1
 x(17,14,680,f,716) 1
 x(18,4,181,15,218) 1
 x(18,12,30,4,48) 1
 x(18,15,238,7,254) 1
 x(18,7,281,9,296) 1
 x(18,9,319,13,333) 1
 x(18,13,333,14,344) 1
 x(18,14,348,6,380) 1
 x(18,6,380,2,392) 1
 x(18,2,392,11,403) 1
 x(18,11,408,8,437) 1
 x(18,8,454,5,473) 1
 x(18,5,532,10,544) 1
 x(18,10,575,3,593) 1
 x(18,3,593,1,619) 1
 x(18,1,663,f,702) 1
 x(19,3,21,13,32) 1
 x(19,12,0,3,11) 1
 x(19,13,32,10,54) 1
 x(19,10,54,15,89) 1
 x(19,15,119,8,139) 1
 x(19,8,202,5,233) 1
 x(19,5,311,4,330) 1
 x(19,4,330,6,369) 1
 x(19,6,417,7,445) 1
 x(19,7,445,11,478) 1
 x(19,11,508,2,542) 1
 x(19,2,542,1,580) 1
 x(19,1,582,14,602) 1
 x(19,14,602,9,619) 1
 x(19,9,662,f,690) 1
 x(20,3,0,13,12) 1
 x(20,13,121,6,146) 1
 x(20,6,201,9,224) 1
 x(20,9,276,7,297) 1
 x(20,7,318,10,345) 1
 x(20,10,346,15,376) 1
 x(20,15,376,12,399) 1
 x(20,12,399,4,438) 1
 x(20,4,453,14,479) 1
 x(20,14,511,8,545) 1
 x(20,8,545,2,562) 1
 x(20,2,580,5,604) 1
 x(20,5,632,1,644) 1
 x(20,1,644,11,663) 1
 x(20,11,680,f,716) 1
