results/flow_abz8.out
Academic license - for non-commercial use only
Set parameter TimeLimit to value 7200

Gurobi Optimizer version 8.0.0 build v8.0.0rc0 (linux64)
Copyright (c) 2018, Gurobi Optimization, LLC

Read LP format model from file flow/abz8.lp
Reading time = 1.30 seconds
: 106562 rows, 192161 columns, 2792764 nonzeros
Optimize a model with 106562 rows, 192161 columns and 2792764 nonzeros
Variable types: 0 continuous, 192161 integer (192160 binary)
Coefficient statistics:
  Matrix range     [1e+00, 7e+02]
  Objective range  [1e+00, 1e+00]
  Bounds range     [1e+00, 1e+00]
  RHS range        [1e+00, 1e+00]
Presolve removed 6402 rows and 5705 columns (presolve time = 5s) ...
Presolve removed 7159 rows and 6501 columns
Presolve time: 9.33s
Presolved: 99403 rows, 185660 columns, 2764284 nonzeros
Variable types: 0 continuous, 185660 integer (185659 binary)

Deterministic concurrent LP optimizer: dual simplex and barrier
Showing barrier log only...

Presolve removed 112 rows and 93 columns
Presolved: 99291 rows, 185567 columns, 2764040 nonzeros

Root barrier log...

Elapsed ordering time = 5s
Elapsed ordering time = 10s
Elapsed ordering time = 14s
Elapsed ordering time = 15s
Elapsed ordering time = 20s
Ordering time: 20.59s

Barrier statistics:
 AA' NZ     : 5.011e+06
 Factor NZ  : 7.791e+07 (roughly 800 MBytes of memory)
 Factor Ops : 3.460e+11 (roughly 14 seconds per iteration)
 Threads    : 1

                  Objective                Residual
Iter       Primal          Dual         Primal    Dual     Compl     Time
   0   4.97994052e+03 -7.09371866e+05  1.95e+04 1.14e-01  2.01e+02    59s
   1   3.05780266e+03 -7.22345486e+05  1.61e+03 1.53e-01  1.87e+01    80s
   2   1.82783077e+03 -5.44432416e+05  3.47e+02 3.24e-13  4.56e+00   101s
   3   1.67321380e+03 -3.17144295e+05  2.06e+02 3.14e-13  2.33e+00   121s
   4   1.41849296e+03 -1.41574155e+05  7.63e+01 4.54e-13  8.45e-01   143s
   5   1.24685043e+03 -6.73723891e+04  3.95e+01 3.98e-13  4.12e-01   164s
   6   9.51259357e+02 -2.45682185e+04  1.28e+01 5.61e-13  1.39e-01   186s
   7   7.56415461e+02 -9.85192805e+03  2.90e+00 4.60e-13  4.34e-02   208s
   8   6.71800903e+02 -2.83380818e+03  5.61e-01 2.47e-13  1.11e-02   231s
   9   6.39867837e+02 -1.75432711e+02  1.39e-01 1.32e-13  2.28e-03   254s
  10   6.22102852e+02  1.36168661e+02  7.41e-02 7.45e-14  1.32e-03   276s
  11   6.09401237e+02  2.10790957e+02  4.62e-02 6.31e-14  1.07e-03   297s
  12   5.82070478e+02  3.79176233e+02  1.18e-02 2.89e-14  5.36e-04   319s
  13   5.64493967e+02  4.60846953e+02  5.04e-03 1.46e-14  2.73e-04   341s
  14   5.52015720e+02  5.00246641e+02  2.64e-03 6.74e-15  1.36e-04   362s
  15   5.45840304e+02  5.13675265e+02  1.73e-03 5.36e-15  8.47e-05   384s
  16   5.38685747e+02  5.23546627e+02  7.51e-04 4.41e-15  3.98e-05   406s
  17   5.32744440e+02  5.29351965e+02  8.11e-05 3.62e-15  8.92e-06   431s
  18   5.31334358e+02  5.30519198e+02  1.40e-05 3.35e-15  2.14e-06   456s
  19   5.31131072e+02  5.30702471e+02  7.92e-06 4.42e-15  1.13e-06   477s
  20   5.30878043e+02  5.30832581e+02  3.11e-07 3.26e-15  1.19e-07   502s
  21   5.30862932e+02  5.30841728e+02  1.28e-07 4.59e-15  5.57e-08   524s
  22   5.30854233e+02  5.30850072e+02  2.57e-08 1.15e-14  1.09e-08   547s
  23   5.30851817e+02  5.30851440e+02  1.23e-09 9.12e-15  9.88e-10   573s
  24   5.30851720e+02  5.30851542e+02  1.99e-09 8.77e-15  4.66e-10   594s
  25   5.30851669e+02  5.30851569e+02  1.12e-09 1.74e-14  2.62e-10   616s
  26   5.30851625e+02  5.30851581e+02  5.64e-09 1.22e-14  1.15e-10   638s
  27   5.30851603e+02  5.30851589e+02  5.02e-09 1.42e-14  3.64e-11   662s
  28   5.30851598e+02  5.30851593e+02  9.39e-09 1.01e-14  1.46e-11   683s
  29   5.30851595e+02  5.30851594e+02  3.92e-09 2.03e-14  4.40e-12   705s

Barrier solved model in 29 iterations and 705.21 seconds
Optimal objective 5.30851595e+02


Root crossover log...

   44378 variables added to crossover basis                      710s
   45248 variables added to crossover basis                      715s
   45898 variables added to crossover basis                      720s

   53106 DPushes remaining with DInf 8.4202856e+01               723s
   16427 DPushes remaining with DInf 4.5874641e+01               757s
    6001 DPushes remaining with DInf 2.8298437e+01               777s
    2008 DPushes remaining with DInf 2.1683142e+01               788s
     700 DPushes remaining with DInf 2.0453232e+01               791s
       0 DPushes remaining with DInf 6.5172515e+01               796s

    8492 PPushes remaining with PInf 1.5673813e-03               796s
       0 PPushes remaining with PInf 8.7843043e-05               821s

  Push phase complete: Pinf 8.7843043e-05, Dinf 2.7856743e+01    821s


Root simplex log...

Iteration    Objective       Primal Inf.    Dual Inf.      Time
   61591    5.3085159e+02   0.000000e+00   2.785674e+01    822s
   62031    5.3085159e+02   0.000000e+00   7.218124e+02    826s
   62501    5.3085159e+02   0.000000e+00   2.519082e+01    830s
   63361    5.3085159e+02   0.000000e+00   8.802521e+01    839s
   63611    5.3085159e+02   0.000000e+00   1.213253e+01    844s
   63851    5.3085159e+02   0.000000e+00   2.566929e+01    848s
   64071    5.3085159e+02   0.000000e+00   2.203417e+01    853s
   64271    5.3085159e+02   0.000000e+00   1.851505e+02    858s
   64491    5.3085159e+02   0.000000e+00   5.673118e+00    862s
   64701    5.3085159e+02   0.000000e+00   2.759039e+00    867s
   64921    5.3085159e+02   0.000000e+00   1.042671e+02    871s
   65161    5.3085159e+02   0.000000e+00   5.444621e-02    876s
   65381    5.3085159e+02   0.000000e+00   2.785745e-03    880s
   65454    5.3085159e+02   0.000000e+00   0.000000e+00    885s
   65454    5.3085159e+02   0.000000e+00   0.000000e+00    886s
Concurrent spin time: 3.89s

Solved with barrier

Root relaxation: objective 5.308516e+02, 65454 iterations, 873.48 seconds
Total elapsed time = 978.70s
Total elapsed time = 1000.77s
Total elapsed time = 1024.34s
Total elapsed time = 1049.76s

    Nodes    |    Current Node    |     Objective Bounds      |     Work
 Expl Unexpl |  Obj  Depth IntInf | Incumbent    BestBd   Gap | It/Node Time

     0     0  530.85159    0 33259          -  530.85159      -     - 1070s
     0     0  531.16891    0 35976          -  531.16891      -     - 6454s
     0     0  531.17097    0 35586          -  531.17097      -     - 6859s

Cutting planes:
  Implied bound: 1
  Clique: 13
  MIR: 19
  StrongCG: 2

Explored 1 nodes (332249 simplex iterations) in 7269.24 seconds
Thread count was 4 (of 4 available processors)

Solution count 0

Time limit reached
Best objective -, best bound 5.320000000000e+02, gap -

Unable to retrieve attribute 'X'

